10 10 10
50
9 7 3
8 9 5
6 9 1
7 5 8
10 9 1
5 10 4
5 8 1
8 2 4
3 4 5
7 10 10
2 9 2
3 9 3
6 4 9
1 8 3
9 6 1
5 6 1
6 4 3
2 1 3
9 5 5
3 2 6
1 2 9
1 1 7
4 2 9
9 6 2
9 10 4
10 9 8
4 1 4
5 3 5
9 1 3
2 10 6
4 8 3
4 1 10
2 10 3
7 2 2
5 6 10
2 1 10
10 9 9
1 6 2
8 1 3
9 7 10
2 5 10
3 5 1
8 1 5
2 5 2
6 10 10
3 9 10
3 3 3
10 1 8
1 4 2
3 5 2
